NAME: Tnm67
COMMENT: Recalculated optimal tour for Tnm67, using concorde got a tour of length 825328.0
TYPE: TOUR
DIMENSION: 67
TOUR_SECTION
1
48
45
50
42
39
53
56
59
62
36
33
30
27
24
21
18
15
12
9
6
3
47
44
49
52
41
38
35
32
29
26
55
58
61
64
67
65
66
63
60
57
23
20
17
14
11
8
5
2
46
43
51
54
40
37
34
31
28
25
22
19
16
13
10
7
4
-1
EOF
